job_count = 14 ;
duration = [|6, 2, 12|17, 17, 19|5, 9, 14|23, 19, 11|27, 3, 16|7, 6, 2|29, 9, 3|22, 14, 9|9, 16, 17|12, 6, 6|5, 14, 10|7, 22, 9|7, 8, 19|29, 16, 12|] ;
machine_count = 3 ;
cost = [|13, 49, 45|26, 43, 57|38, 36, 48|20, 35, 53|31, 31, 44|30, 42, 33|20, 49, 48|24, 28, 50|14, 22, 59|24, 37, 40|19, 26, 34|14, 37, 30|18, 42, 42|16, 37, 40|] ;
deadline = [38, 45, 21, 17, 30, 30, 30, 29, 30, 43, 32, 42, 32, 12] ;
release = [0, 0, 0, 0, 0, 0, 0, 0, 0, 0, 0, 0, 0, 0] ;
resource = [|9, 9, 9|1, 1, 1|5, 5, 5|1, 1, 1|9, 9, 9|6, 6, 6|6, 6, 6|3, 3, 3|7, 7, 7|6, 6, 6|6, 6, 6|5, 5, 5|5, 5, 5|9, 9, 9|] ;
capacities = [10, 10, 10] ;
